objective value:                    0.285545409309012
h-1,15                                           0.05 	(obj:0)
h-1,44                                           0.05 	(obj:0)
h-1,45                                           0.05 	(obj:0)
h-1,58                                           0.05 	(obj:0)
h-1,73                                           0.05 	(obj:0)
h-1,80                                           0.05 	(obj:0)
h-1,81                                           0.05 	(obj:0)
h-1,86                                           0.05 	(obj:0)
h-1,89                                           0.05 	(obj:0)
h-1,109                                          0.05 	(obj:0)
h-1,113                                          0.05 	(obj:0)
h-1,114                                          0.05 	(obj:0)
h-1,115                                          0.05 	(obj:0)
h-1,116                                          0.05 	(obj:0)
h-1,118                                          0.05 	(obj:0)
h-1,119                                          0.05 	(obj:0)
h-1,120                                          0.05 	(obj:0)
h-1,121                                          0.05 	(obj:0)
h-1,122                                          0.05 	(obj:0)
h-1,123                                          0.05 	(obj:0)
h-1,124                                          0.05 	(obj:0)
h-1,128                            0.0990196138620377 	(obj:0)
h-1,129                             0.946078431606293 	(obj:0)
h-1,130                             0.377450984716415 	(obj:0)
h-1,137                                          0.05 	(obj:0)
h-1,138                                          0.05 	(obj:0)
h-1,142                                          0.05 	(obj:0)
h-1,143                                          0.05 	(obj:0)
h-1,144                                          0.05 	(obj:0)
h-1,145                                          0.05 	(obj:0)
h-1,146                                          0.05 	(obj:0)
h-1,147                                          0.05 	(obj:0)
h-1,148                                          0.05 	(obj:0)
h-1,149                                          0.05 	(obj:0)
h-1,150                                          0.05 	(obj:0)
h-1,151                                          0.05 	(obj:0)
h-1,156                             0.291176480054855 	(obj:0)
h-1,157                             0.938235294818878 	(obj:0)
h-1,158                             0.271568638086319 	(obj:0)
h-1,165                                          0.05 	(obj:0)
h-1,169                                          0.05 	(obj:0)
h-1,170                                          0.05 	(obj:0)
h-1,171                                          0.05 	(obj:0)
h-1,172                                          0.05 	(obj:0)
h-1,173                                          0.05 	(obj:0)
h-1,174                                          0.05 	(obj:0)
h-1,175                                          0.05 	(obj:0)
h-1,176                                          0.05 	(obj:0)
h-1,177                                          0.05 	(obj:0)
h-1,178                                          0.05 	(obj:0)
h-1,179                                          0.05 	(obj:0)
h-1,180                                          0.05 	(obj:0)
h-1,181                                          0.05 	(obj:0)
h-1,182                                          0.05 	(obj:0)
h-1,183                                          0.05 	(obj:0)
h-1,184                             0.579411792755127 	(obj:0)
h-1,185                             0.995098042488098 	(obj:0)
h-1,186                                          0.05 	(obj:0)
h-1,189                                          0.05 	(obj:0)
h-1,195                                          0.05 	(obj:0)
h-1,196                                          0.05 	(obj:0)
h-1,197                                          0.05 	(obj:0)
h-1,198                                          0.05 	(obj:0)
h-1,199                                          0.05 	(obj:0)
h-1,200                                          0.05 	(obj:0)
h-1,201                                          0.05 	(obj:0)
h-1,202                                          0.05 	(obj:0)
h-1,203                                          0.05 	(obj:0)
h-1,204                                          0.05 	(obj:0)
h-1,205                                          0.05 	(obj:0)
h-1,206                                          0.05 	(obj:0)
h-1,207                                          0.05 	(obj:0)
h-1,208                                          0.05 	(obj:0)
h-1,209                                          0.05 	(obj:0)
h-1,210                                          0.05 	(obj:0)
h-1,211                             0.226470592617989 	(obj:0)
h-1,212                                             1 	(obj:0)
h-1,213                             0.638235318660736 	(obj:0)
h-1,216                                          0.05 	(obj:0)
h-1,222                                          0.05 	(obj:0)
h-1,223                                          0.05 	(obj:0)
h-1,225                                          0.05 	(obj:0)
h-1,226                                          0.05 	(obj:0)
h-1,227                                          0.05 	(obj:0)
h-1,228                                          0.05 	(obj:0)
h-1,229                                          0.05 	(obj:0)
h-1,230                                          0.05 	(obj:0)
h-1,231                                          0.05 	(obj:0)
h-1,232                                          0.05 	(obj:0)
h-1,233                                          0.05 	(obj:0)
h-1,234                                          0.05 	(obj:0)
h-1,235                                          0.05 	(obj:0)
h-1,236                                          0.05 	(obj:0)
h-1,237                                          0.05 	(obj:0)
h-1,238                                          0.05 	(obj:0)
h-1,239                             0.379411774873734 	(obj:0)
h-1,240                                             1 	(obj:0)
h-1,241                              0.29705882370472 	(obj:0)
h-1,242                                          0.05 	(obj:0)
h-1,243                                          0.05 	(obj:0)
h-1,245                                          0.05 	(obj:0)
h-1,246                                          0.05 	(obj:0)
h-1,250                                          0.05 	(obj:0)
h-1,252                                          0.05 	(obj:0)
h-1,253                                          0.05 	(obj:0)
h-1,254                                          0.05 	(obj:0)
h-1,255                                          0.05 	(obj:0)
h-1,256                                          0.05 	(obj:0)
h-1,257                                          0.05 	(obj:0)
h-1,258                                          0.05 	(obj:0)
h-1,259                                          0.05 	(obj:0)
h-1,260                                          0.05 	(obj:0)
h-1,261                                          0.05 	(obj:0)
h-1,262                                          0.05 	(obj:0)
h-1,263                                          0.05 	(obj:0)
h-1,264                                          0.05 	(obj:0)
h-1,265                                          0.05 	(obj:0)
h-1,266                                          0.05 	(obj:0)
h-1,267                             0.842156875133514 	(obj:0)
h-1,268                             0.924509811401367 	(obj:0)
h-1,269                            0.0931372560560703 	(obj:0)
h-1,270                                          0.05 	(obj:0)
h-1,271                                          0.05 	(obj:0)
h-1,272                                          0.05 	(obj:0)
h-1,274                                          0.05 	(obj:0)
h-1,279                                          0.05 	(obj:0)
h-1,280                                          0.05 	(obj:0)
h-1,281                                          0.05 	(obj:0)
h-1,282                                          0.05 	(obj:0)
h-1,283                                          0.05 	(obj:0)
h-1,284                                          0.05 	(obj:0)
h-1,285                                          0.05 	(obj:0)
h-1,286                                          0.05 	(obj:0)
h-1,287                                          0.05 	(obj:0)
h-1,288                                          0.05 	(obj:0)
h-1,289                                          0.05 	(obj:0)
h-1,290                                          0.05 	(obj:0)
h-1,293                                          0.05 	(obj:0)
h-1,294                             0.175490203499794 	(obj:0)
h-1,295                                             1 	(obj:0)
h-1,296                             0.897058832645416 	(obj:0)
h-1,297                                          0.05 	(obj:0)
h-1,298                                          0.05 	(obj:0)
h-1,299                                          0.05 	(obj:0)
h-1,300                                          0.05 	(obj:0)
h-1,301                                          0.05 	(obj:0)
h-1,302                                          0.05 	(obj:0)
h-1,307                                          0.05 	(obj:0)
h-1,308                                          0.05 	(obj:0)
h-1,309                                          0.05 	(obj:0)
h-1,310                                          0.05 	(obj:0)
h-1,311                                          0.05 	(obj:0)
h-1,314                                          0.05 	(obj:0)
h-1,319                                          0.05 	(obj:0)
h-1,321                                          0.05 	(obj:0)
h-1,322                             0.422549027204514 	(obj:0)
h-1,323                                             1 	(obj:0)
h-1,324                             0.814705896377564 	(obj:0)
h-1,325                                          0.05 	(obj:0)
h-1,326                                          0.05 	(obj:0)
h-1,327                                          0.05 	(obj:0)
h-1,328                                          0.05 	(obj:0)
h-1,329                                          0.05 	(obj:0)
h-1,330                                          0.05 	(obj:0)
h-1,331                                          0.05 	(obj:0)
h-1,333                                          0.05 	(obj:0)
h-1,334                                          0.05 	(obj:0)
h-1,336                                          0.05 	(obj:0)
h-1,337                                          0.05 	(obj:0)
h-1,338                                          0.05 	(obj:0)
h-1,339                                          0.05 	(obj:0)
h-1,350                             0.499019634723663 	(obj:0)
h-1,351                             0.946078431606293 	(obj:0)
h-1,352                             0.351960796117783 	(obj:0)
h-1,353                                          0.05 	(obj:0)
h-1,354                                          0.05 	(obj:0)
h-1,355                                          0.05 	(obj:0)
h-1,356                                          0.05 	(obj:0)
h-1,357                                          0.05 	(obj:0)
h-1,358                                          0.05 	(obj:0)
h-1,361                                          0.05 	(obj:0)
h-1,362                                          0.05 	(obj:0)
h-1,366                                          0.05 	(obj:0)
h-1,368                                          0.05 	(obj:0)
h-1,370                                          0.05 	(obj:0)
h-1,372                                          0.05 	(obj:0)
h-1,377                             0.173529413342476 	(obj:0)
h-1,378                             0.879411768913269 	(obj:0)
h-1,379                             0.753921580314636 	(obj:0)
h-1,380                            0.0813725508749485 	(obj:0)
h-1,381                                          0.05 	(obj:0)
h-1,382                                          0.05 	(obj:0)
h-1,384                                          0.05 	(obj:0)
h-1,389                                          0.05 	(obj:0)
h-1,390                                          0.05 	(obj:0)
h-1,391                                          0.05 	(obj:0)
h-1,393                                          0.05 	(obj:0)
h-1,394                                          0.05 	(obj:0)
h-1,395                                          0.05 	(obj:0)
h-1,396                                          0.05 	(obj:0)
h-1,405                             0.436274510622025 	(obj:0)
h-1,406                                          0.95 	(obj:0)
h-1,407                             0.697058844566345 	(obj:0)
h-1,408                                          0.05 	(obj:0)
h-1,409                                          0.05 	(obj:0)
h-1,410                                          0.05 	(obj:0)
h-1,411                                          0.05 	(obj:0)
h-1,412                                          0.05 	(obj:0)
h-1,413                                          0.05 	(obj:0)
h-1,417                                          0.05 	(obj:0)
h-1,418                                          0.05 	(obj:0)
h-1,422                                          0.05 	(obj:0)
h-1,423                                          0.05 	(obj:0)
h-1,424                                          0.05 	(obj:0)
h-1,433                             0.620588254928589 	(obj:0)
h-1,434                             0.946078431606293 	(obj:0)
h-1,435                             0.367647069692612 	(obj:0)
h-1,436                                          0.05 	(obj:0)
h-1,437                                          0.05 	(obj:0)
h-1,438                                          0.05 	(obj:0)
h-1,439                                          0.05 	(obj:0)
h-1,440                                          0.05 	(obj:0)
h-1,441                                          0.05 	(obj:0)
h-1,442                                          0.05 	(obj:0)
h-1,443                                          0.05 	(obj:0)
h-1,444                                          0.05 	(obj:0)
h-1,445                                          0.05 	(obj:0)
h-1,446                                          0.05 	(obj:0)
h-1,447                                          0.05 	(obj:0)
h-1,448                                          0.05 	(obj:0)
h-1,449                                          0.05 	(obj:0)
h-1,450                                          0.05 	(obj:0)
h-1,455                                          0.05 	(obj:0)
h-1,456                                          0.05 	(obj:0)
h-1,460                            0.0441176488995552 	(obj:0)
h-1,461                             0.859803926944733 	(obj:0)
h-1,462                             0.793137264251709 	(obj:0)
h-1,463                                          0.05 	(obj:0)
h-1,464                                          0.05 	(obj:0)
h-1,465                                          0.05 	(obj:0)
h-1,466                                          0.05 	(obj:0)
h-1,467                                          0.05 	(obj:0)
h-1,468                                          0.05 	(obj:0)
h-1,469                                          0.05 	(obj:0)
h-1,473                                          0.05 	(obj:0)
h-1,474                                          0.05 	(obj:0)
h-1,475                                          0.05 	(obj:0)
h-1,477                                          0.05 	(obj:0)
h-1,484                                          0.05 	(obj:0)
h-1,485                                          0.05 	(obj:0)
h-1,488                             0.520588237047195 	(obj:0)
h-1,489                             0.946078431606293 	(obj:0)
h-1,490                             0.573529434204102 	(obj:0)
h-1,491                                          0.05 	(obj:0)
h-1,493                                          0.05 	(obj:0)
h-1,498                                          0.05 	(obj:0)
h-1,499                                          0.05 	(obj:0)
h-1,500                                          0.05 	(obj:0)
h-1,501                                          0.05 	(obj:0)
h-1,502                                          0.05 	(obj:0)
h-1,504                                          0.05 	(obj:0)
h-1,505                                          0.05 	(obj:0)
h-1,506                                          0.05 	(obj:0)
h-1,508                                          0.05 	(obj:0)
h-1,516                             0.542156887054443 	(obj:0)
h-1,517                                             1 	(obj:0)
h-1,518                             0.606862771511078 	(obj:0)
h-1,528                                          0.05 	(obj:0)
h-1,529                                          0.05 	(obj:0)
h-1,530                                          0.05 	(obj:0)
h-1,531                                          0.05 	(obj:0)
h-1,532                                          0.05 	(obj:0)
h-1,533                                          0.05 	(obj:0)
h-1,534                                          0.05 	(obj:0)
h-1,535                                          0.05 	(obj:0)
h-1,544                             0.844117653369904 	(obj:0)
h-1,545                             0.946078431606293 	(obj:0)
h-1,546                             0.208823543787003 	(obj:0)
h-1,555                                          0.05 	(obj:0)
h-1,556                                          0.05 	(obj:0)
h-1,557                                          0.05 	(obj:0)
h-1,558                                          0.05 	(obj:0)
h-1,559                                          0.05 	(obj:0)
h-1,562                                          0.05 	(obj:0)
h-1,563                                          0.05 	(obj:0)
h-1,564                                          0.05 	(obj:0)
h-1,571                             0.189215686917305 	(obj:0)
h-1,572                             0.934313726425171 	(obj:0)
h-1,573                             0.946078431606293 	(obj:0)
h-1,574                             0.208823543787003 	(obj:0)
h-1,583                                          0.05 	(obj:0)
h-1,584                                          0.05 	(obj:0)
h-1,585                                          0.05 	(obj:0)
h-1,589                                          0.05 	(obj:0)
h-1,590                                          0.05 	(obj:0)
h-1,591                                          0.05 	(obj:0)
h-1,599                             0.502941203117371 	(obj:0)
h-1,600                             0.946078431606293 	(obj:0)
h-1,601                             0.753921580314636 	(obj:0)
h-1,612                                          0.05 	(obj:0)
h-1,613                                          0.05 	(obj:0)
h-1,617                                          0.05 	(obj:0)
h-1,618                                          0.05 	(obj:0)
h-1,619                                          0.05 	(obj:0)
h-1,620                                          0.05 	(obj:0)
h-1,625                                          0.05 	(obj:0)
h-1,626                            0.0892156876623631 	(obj:0)
h-1,627                             0.793137264251709 	(obj:0)
h-1,628                             0.946078431606293 	(obj:0)
h-1,629                             0.424509805440903 	(obj:0)
h-1,640                                          0.05 	(obj:0)
h-1,641                                          0.05 	(obj:0)
h-1,648                                          0.05 	(obj:0)
h-1,649                                          0.05 	(obj:0)
h-1,650                                          0.05 	(obj:0)
h-1,651                                          0.05 	(obj:0)
h-1,655                             0.726470601558685 	(obj:0)
h-1,656                             0.640196096897125 	(obj:0)
h-1,668                                          0.05 	(obj:0)
h-1,670                                          0.05 	(obj:0)
h-1,676                                          0.05 	(obj:0)
h-1,677                                          0.05 	(obj:0)
h-1,678                                          0.05 	(obj:0)
h-1,679                                          0.05 	(obj:0)
h-1,680                                          0.05 	(obj:0)
h-1,704                                          0.05 	(obj:0)
h-1,705                                          0.05 	(obj:0)
h-1,706                                          0.05 	(obj:0)
h-1,707                                          0.05 	(obj:0)
h-1,708                                          0.05 	(obj:0)
h-1,709                                          0.05 	(obj:0)
h-1,710                                          0.05 	(obj:0)
h-1,711                                          0.05 	(obj:0)
h-1,712                                          0.05 	(obj:0)
h-1,713                                          0.05 	(obj:0)
h-1,714                                          0.05 	(obj:0)
h-1,715                                          0.05 	(obj:0)
h-1,716                                          0.05 	(obj:0)
h-1,717                                          0.05 	(obj:0)
h-1,718                                          0.05 	(obj:0)
h-1,719                                          0.05 	(obj:0)
h-1,720                                          0.05 	(obj:0)
h-1,721                                          0.05 	(obj:0)
h-1,725                                          0.05 	(obj:0)
h-1,734                                          0.05 	(obj:0)
h-1,735                                          0.05 	(obj:0)
h-1,736                                          0.05 	(obj:0)
h-1,737                                          0.05 	(obj:0)
h-1,738                                          0.05 	(obj:0)
h-1,739                                          0.05 	(obj:0)
h-1,740                                          0.05 	(obj:0)
h-1,741                                          0.05 	(obj:0)
h-1,742                                          0.05 	(obj:0)
h-1,743                                          0.05 	(obj:0)
h-1,744                                          0.05 	(obj:0)
h-1,745                                          0.05 	(obj:0)
h-1,746                                          0.05 	(obj:0)
h-1,747                                          0.05 	(obj:0)
h-1,748                                          0.05 	(obj:0)
h-1,749                                          0.05 	(obj:0)
h-1,750                                          0.05 	(obj:0)
h-1,753                                          0.05 	(obj:0)
h-1,760                                          0.05 	(obj:0)
h-1,761                                          0.05 	(obj:0)
h-1,764                                          0.05 	(obj:0)
h-1,765                                          0.05 	(obj:0)
h-1,766                                          0.05 	(obj:0)
h-1,768                                          0.05 	(obj:0)
h-1,769                                          0.05 	(obj:0)
h-1,770                                          0.05 	(obj:0)
h-1,771                                          0.05 	(obj:0)
h-1,772                                          0.05 	(obj:0)
h-1,773                                          0.05 	(obj:0)
h-1,774                                          0.05 	(obj:0)
h-1,775                                          0.05 	(obj:0)
h-1,778                                          0.05 	(obj:0)
h-1,779                                          0.05 	(obj:0)
z0,0                                 8.63081054228241 	(obj:0)
a0,0                                 8.63081054228241 	(obj:0)
z0,1                                 6.06404040824944 	(obj:0)
a0,1                                 6.06404040824944 	(obj:0)
z0,2                                 3.81181263984316 	(obj:0)
a0,2                                 3.81181263984316 	(obj:0)
z0,3                                 4.14679690469052 	(obj:0)
a0,3                                 4.14679690469052 	(obj:0)
z0,4                                 1.98246709709643 	(obj:0)
a0,4                                 1.98246709709643 	(obj:0)
z1,0                                 11.7541819211186 	(obj:0)
a1,0                                 11.7541819211186 	(obj:0)
z1,1                                 6.14050807763693 	(obj:0)
a1,1                                 6.14050807763693 	(obj:0)
z1,2                                 7.52446385935689 	(obj:0)
a1,2                                 7.52446385935689 	(obj:0)
z1,3                                 4.12196591244972 	(obj:0)
a1,3                                 4.12196591244972 	(obj:0)
z1,4                                 7.85593455562419 	(obj:0)
a1,4                                 7.85593455562419 	(obj:0)
z2,0                                 -8.8277436403334 	(obj:0)
z2,2                                0.591877943082959 	(obj:0)
a2,2                                0.591877943082959 	(obj:0)
z2,3                                 0.97031894517175 	(obj:0)
a2,3                                 0.97031894517175 	(obj:0)
z2,4                                -6.84546954093087 	(obj:0)
z2,5                                -3.35589434949175 	(obj:0)
z2,6                                -6.58347749590168 	(obj:0)
z2,7                                0.285545408309012 	(obj:0)
a2,7                                0.285545408309012 	(obj:1)
z2,8                               -0.046911268011091 	(obj:0)
z2,9                                 -1.5769532706014 	(obj:0)
